 CONTCAR                                
   1.00000000000000     
     4.3635439872999999    0.0000000000000000    0.0000000000000000
     2.1817719936000000    3.7789399435000002    0.0000000000000000
    -2.1817715400500002   -1.2596463859500000   13.5272043968499993
   Bi   Te   Mn
     2     4     1
Direct
  0.5768100020000020  0.5768100020000020  0.2304300059999989
  0.4231899979999980  0.4231899979999980  0.7695699940000011
  0.8675899509999994  0.8675900100000007  0.1027699699999971
  0.1324100490000006  0.1324100049999970  0.8972300579999981
  0.7051399950000032  0.7051399950000032  0.6154199839999990
  0.2948600049999968  0.2948600049999968  0.3845800160000010
  0.0000000000000000  0.0000000000000000  0.5000000000000000
 
  0.00000000E+00  0.00000000E+00  0.00000000E+00
  0.00000000E+00  0.00000000E+00  0.00000000E+00
  0.00000000E+00  0.00000000E+00  0.00000000E+00
  0.00000000E+00  0.00000000E+00  0.00000000E+00
  0.00000000E+00  0.00000000E+00  0.00000000E+00
  0.00000000E+00  0.00000000E+00  0.00000000E+00
  0.00000000E+00  0.00000000E+00  0.00000000E+00
