 CONTCAR
   1.000
    4.3635439872999999    0.0000000000000000    0.0000000000000000
    2.1817719936000000    3.7789399435000002    0.0000000000000000
   -2.1817715400500002   -1.2596463859500000    13.527204396849999
   Bi   Te   Mn
    2    4    1
Cartesian
     3.2726580949692097     1.8894700320957778     3.1170737903293717    Bi1
     1.0908863458807894     0.6298235254542219    10.4101306065206280    Bi2
     5.4544299041553037     3.1491167220758749     1.3901903900481425    Te1
    -1.0908854916683266    -0.6298231431118743    12.1370143855635799    Te2
     3.2726582717760202     1.8894701341778839     8.3249119134741552    Te3
     1.0908861690739799     0.6298234233721165     5.2022924833758433    Te4
    -1.0908857700250001    -0.6298231929750000     6.7636021984249997    Mn1
